<number of tasks>
50

<cycle time>
1000

<order strength>
0.898


<task times>
1 584
2 415
3 366
4 483
5 556
6 386
7 472
8 561
9 573
10 575
11 360
12 514
13 515
14 357
15 397
16 345
17 310
18 413
19 606
20 773
21 416
22 628
23 674
24 412
25 393
26 669
27 725
28 462
29 314
30 472
31 336
32 395
33 401
34 517
35 520
36 523
37 592
38 391
39 450
40 632
41 392
42 551
43 619
44 238
45 717
46 606
47 549
48 395
49 516
50 356

<precedence relations>
1,11
1,12
1,13
2,4
2,5
3,4
3,5
4,6
4,7
4,8
5,6
5,7
5,8
6,9
6,10
7,9
7,10
8,9
8,10
9,11
9,12
9,13
10,11
10,12
10,13
11,14
11,15
11,16
12,14
12,15
12,16
13,14
13,15
13,16
14,17
14,18
14,19
14,20
15,17
15,18
15,19
15,20
16,17
16,18
16,19
16,20
17,21
17,22
17,23
18,21
18,22
18,23
19,21
19,22
19,23
20,21
20,22
20,23
21,24
21,25
22,24
22,25
23,24
23,25
24,26
24,27
24,28
24,29
25,26
25,27
25,28
25,29
26,30
26,31
27,30
27,31
28,30
29,31
29,33
30,32
30,33
30,34
30,35
31,32
32,36
32,37
33,47
33,49
34,36
35,49
36,38
36,39
37,39
38,40
38,41
38,42
39,49
40,43
41,47
41,48
42,44
43,45
43,46
43,47
44,45
44,46
44,47
45,48
45,49
46,49
46,50

<end>
